c A SAT instance generated from a 3-CNF formula that had 32 clauses and 8 variables
p cnf 8 32
-8 4 6 0
7 2 3 0
2 -7 3 0
-5 -1 -6 0
-1 -6 5 0
7 -4 -2 0
-4 -3 -2 0
-8 -2 7 0
-4 -1 7 0
-4 7 -8 0
6 4 -1 0
-1 4 8 0
4 -3 6 0
-5 -6 -4 0
5 1 2 0
-5 2 -8 0
-3 -4 5 0
-4 7 6 0
5 -6 -3 0
7 1 6 0
-7 6 -3 0
8 7 -1 0
1 4 8 0
8 1 -6 0
6 2 4 0
-7 -3 -8 0
2 -1 -5 0
7 6 -1 0
-6 -4 3 0
-6 2 1 0
-4 6 5 0
-3 -1 4 0
